p cnf 139 2068
                                    
-1 0
2 0
-1 3 0
-3 4 0
-4 5 0
-5 6 0
-6 7 0
-7 2 0
-8 0
9 0
-8 10 0
-10 11 0
-11 12 0
-12 9 0
-13 0
14 0
-13 15 0
-15 16 0
-16 17 0
-17 18 0
-18 19 0
-19 20 0
-20 21 0
-21 14 0
-22 0
23 0
-22 24 0
-24 25 0
-25 26 0
-26 27 0
-27 28 0
-28 23 0
-29 0
30 0
-29 31 0
-31 32 0
-32 33 0
-33 34 0
-34 35 0
-35 36 0
-36 37 0
-37 38 0
-38 39 0
-39 40 0
-40 41 0
-41 30 0
-30 7 -8 0
-30 2 -10 0
-41 6 -8 0
-41 7 -10 0
-41 2 -10 0
-40 5 -8 0
-40 6 -10 0
-40 7 -10 0
-40 2 -11 0
-39 4 -8 0
-39 5 -10 0
-39 6 -10 0
-39 7 -11 0
-39 2 -11 0
-38 3 -8 0
-38 4 -10 0
-38 5 -10 0
-38 6 -11 0
-38 7 -11 0
-38 2 -12 0
-37 1 -8 0
-37 3 -10 0
-37 4 -10 0
-37 5 -11 0
-37 6 -11 0
-37 7 -12 0
-37 2 -12 0
-36 1 -10 0
-36 3 -10 0
-36 4 -11 0
-36 5 -11 0
-36 6 -12 0
-36 7 -12 0
-36 2 -9 0
-35 1 -10 0
-35 3 -11 0
-35 4 -11 0
-35 5 -12 0
-35 6 -12 0
-35 7 -9 0
-34 1 -11 0
-34 3 -11 0
-34 4 -12 0
-34 5 -12 0
-34 6 -9 0
-33 1 -11 0
-33 3 -12 0
-33 4 -12 0
-33 5 -9 0
-32 1 -12 0
-32 3 -12 0
-32 4 -9 0
-31 1 -12 0
-31 3 -9 0
-29 1 -9 0
29 -3 9 0
29 -1 12 0
31 -4 9 0
31 -3 12 0
31 -1 12 0
32 -5 9 0
32 -4 12 0
32 -3 12 0
32 -1 11 0
33 -6 9 0
33 -5 12 0
33 -4 12 0
33 -3 11 0
33 -1 11 0
34 -7 9 0
34 -6 12 0
34 -5 12 0
34 -4 11 0
34 -3 11 0
34 -1 10 0
35 -2 9 0
35 -7 12 0
35 -6 12 0
35 -5 11 0
35 -4 11 0
35 -3 10 0
35 -1 10 0
36 -2 12 0
36 -7 12 0
36 -6 11 0
36 -5 11 0
36 -4 10 0
36 -3 10 0
36 -1 8 0
37 -2 12 0
37 -7 11 0
37 -6 11 0
37 -5 10 0
37 -4 10 0
37 -3 8 0
38 -2 11 0
38 -7 11 0
38 -6 10 0
38 -5 10 0
38 -4 8 0
39 -2 11 0
39 -7 10 0
39 -6 10 0
39 -5 8 0
40 -2 10 0
40 -7 10 0
40 -6 8 0
41 -2 10 0
41 -7 8 0
30 -2 8 0
-42 0
43 0
-42 44 0
-44 45 0
-45 46 0
-46 47 0
-47 48 0
-48 49 0
-49 50 0
-50 51 0
-51 52 0
-52 53 0
-53 54 0
-54 55 0
-55 56 0
-56 57 0
-57 58 0
-58 59 0
-59 60 0
-60 61 0
-61 62 0
-62 63 0
-63 64 0
-64 65 0
-65 66 0
-66 67 0
-67 68 0
-68 69 0
-69 70 0
-70 71 0
-71 72 0
-72 73 0
-73 74 0
-74 75 0
-75 76 0
-76 77 0
-77 78 0
-78 79 0
-79 80 0
-80 81 0
-81 82 0
-82 43 0
-43 41 14 0
-43 30 21 0
-82 40 14 0
-82 41 21 0
-82 30 21 0
-81 39 14 0
-81 40 21 0
-81 41 21 0
-81 30 21 0
-80 38 14 0
-80 39 21 0
-80 40 21 0
-80 41 21 0
-80 30 21 0
-79 37 14 0
-79 38 21 0
-79 39 21 0
-79 40 21 0
-79 41 21 0
-79 30 20 0
-78 36 14 0
-78 37 21 0
-78 38 21 0
-78 39 21 0
-78 40 21 0
-78 41 20 0
-78 30 20 0
-77 35 14 0
-77 36 21 0
-77 37 21 0
-77 38 21 0
-77 39 21 0
-77 40 20 0
-77 41 20 0
-77 30 20 0
-76 34 14 0
-76 35 21 0
-76 36 21 0
-76 37 21 0
-76 38 21 0
-76 39 20 0
-76 40 20 0
-76 41 20 0
-76 30 20 0
-75 33 14 0
-75 34 21 0
-75 35 21 0
-75 36 21 0
-75 37 21 0
-75 38 20 0
-75 39 20 0
-75 40 20 0
-75 41 20 0
-75 30 19 0
-74 32 14 0
-74 33 21 0
-74 34 21 0
-74 35 21 0
-74 36 21 0
-74 37 20 0
-74 38 20 0
-74 39 20 0
-74 40 20 0
-74 41 19 0
-74 30 19 0
-73 31 14 0
-73 32 21 0
-73 33 21 0
-73 34 21 0
-73 35 21 0
-73 36 20 0
-73 37 20 0
-73 38 20 0
-73 39 20 0
-73 40 19 0
-73 41 19 0
-73 30 19 0
-72 29 14 0
-72 31 21 0
-72 32 21 0
-72 33 21 0
-72 34 21 0
-72 35 20 0
-72 36 20 0
-72 37 20 0
-72 38 20 0
-72 39 19 0
-72 40 19 0
-72 41 19 0
-72 30 19 0
-71 29 21 0
-71 31 21 0
-71 32 21 0
-71 33 21 0
-71 34 20 0
-71 35 20 0
-71 36 20 0
-71 37 20 0
-71 38 19 0
-71 39 19 0
-71 40 19 0
-71 41 19 0
-71 30 18 0
-70 29 21 0
-70 31 21 0
-70 32 21 0
-70 33 20 0
-70 34 20 0
-70 35 20 0
-70 36 20 0
-70 37 19 0
-70 38 19 0
-70 39 19 0
-70 40 19 0
-70 41 18 0
-70 30 18 0
-69 29 21 0
-69 31 21 0
-69 32 20 0
-69 33 20 0
-69 34 20 0
-69 35 20 0
-69 36 19 0
-69 37 19 0
-69 38 19 0
-69 39 19 0
-69 40 18 0
-69 41 18 0
-69 30 18 0
-68 29 21 0
-68 31 20 0
-68 32 20 0
-68 33 20 0
-68 34 20 0
-68 35 19 0
-68 36 19 0
-68 37 19 0
-68 38 19 0
-68 39 18 0
-68 40 18 0
-68 41 18 0
-68 30 18 0
-67 29 20 0
-67 31 20 0
-67 32 20 0
-67 33 20 0
-67 34 19 0
-67 35 19 0
-67 36 19 0
-67 37 19 0
-67 38 18 0
-67 39 18 0
-67 40 18 0
-67 41 18 0
-67 30 17 0
-66 29 20 0
-66 31 20 0
-66 32 20 0
-66 33 19 0
-66 34 19 0
-66 35 19 0
-66 36 19 0
-66 37 18 0
-66 38 18 0
-66 39 18 0
-66 40 18 0
-66 41 17 0
-66 30 17 0
-65 29 20 0
-65 31 20 0
-65 32 19 0
-65 33 19 0
-65 34 19 0
-65 35 19 0
-65 36 18 0
-65 37 18 0
-65 38 18 0
-65 39 18 0
-65 40 17 0
-65 41 17 0
-65 30 17 0
-64 29 20 0
-64 31 19 0
-64 32 19 0
-64 33 19 0
-64 34 19 0
-64 35 18 0
-64 36 18 0
-64 37 18 0
-64 38 18 0
-64 39 17 0
-64 40 17 0
-64 41 17 0
-64 30 17 0
-63 29 19 0
-63 31 19 0
-63 32 19 0
-63 33 19 0
-63 34 18 0
-63 35 18 0
-63 36 18 0
-63 37 18 0
-63 38 17 0
-63 39 17 0
-63 40 17 0
-63 41 17 0
-63 30 16 0
-62 29 19 0
-62 31 19 0
-62 32 19 0
-62 33 18 0
-62 34 18 0
-62 35 18 0
-62 36 18 0
-62 37 17 0
-62 38 17 0
-62 39 17 0
-62 40 17 0
-62 41 16 0
-62 30 16 0
-61 29 19 0
-61 31 19 0
-61 32 18 0
-61 33 18 0
-61 34 18 0
-61 35 18 0
-61 36 17 0
-61 37 17 0
-61 38 17 0
-61 39 17 0
-61 40 16 0
-61 41 16 0
-61 30 16 0
-60 29 19 0
-60 31 18 0
-60 32 18 0
-60 33 18 0
-60 34 18 0
-60 35 17 0
-60 36 17 0
-60 37 17 0
-60 38 17 0
-60 39 16 0
-60 40 16 0
-60 41 16 0
-60 30 16 0
-59 29 18 0
-59 31 18 0
-59 32 18 0
-59 33 18 0
-59 34 17 0
-59 35 17 0
-59 36 17 0
-59 37 17 0
-59 38 16 0
-59 39 16 0
-59 40 16 0
-59 41 16 0
-59 30 15 0
-58 29 18 0
-58 31 18 0
-58 32 18 0
-58 33 17 0
-58 34 17 0
-58 35 17 0
-58 36 17 0
-58 37 16 0
-58 38 16 0
-58 39 16 0
-58 40 16 0
-58 41 15 0
-58 30 15 0
-57 29 18 0
-57 31 18 0
-57 32 17 0
-57 33 17 0
-57 34 17 0
-57 35 17 0
-57 36 16 0
-57 37 16 0
-57 38 16 0
-57 39 16 0
-57 40 15 0
-57 41 15 0
-57 30 15 0
-56 29 18 0
-56 31 17 0
-56 32 17 0
-56 33 17 0
-56 34 17 0
-56 35 16 0
-56 36 16 0
-56 37 16 0
-56 38 16 0
-56 39 15 0
-56 40 15 0
-56 41 15 0
-56 30 15 0
-55 29 17 0
-55 31 17 0
-55 32 17 0
-55 33 17 0
-55 34 16 0
-55 35 16 0
-55 36 16 0
-55 37 16 0
-55 38 15 0
-55 39 15 0
-55 40 15 0
-55 41 15 0
-55 30 13 0
-54 29 17 0
-54 31 17 0
-54 32 17 0
-54 33 16 0
-54 34 16 0
-54 35 16 0
-54 36 16 0
-54 37 15 0
-54 38 15 0
-54 39 15 0
-54 40 15 0
-54 41 13 0
-53 29 17 0
-53 31 17 0
-53 32 16 0
-53 33 16 0
-53 34 16 0
-53 35 16 0
-53 36 15 0
-53 37 15 0
-53 38 15 0
-53 39 15 0
-53 40 13 0
-52 29 17 0
-52 31 16 0
-52 32 16 0
-52 33 16 0
-52 34 16 0
-52 35 15 0
-52 36 15 0
-52 37 15 0
-52 38 15 0
-52 39 13 0
-51 29 16 0
-51 31 16 0
-51 32 16 0
-51 33 16 0
-51 34 15 0
-51 35 15 0
-51 36 15 0
-51 37 15 0
-51 38 13 0
-50 29 16 0
-50 31 16 0
-50 32 16 0
-50 33 15 0
-50 34 15 0
-50 35 15 0
-50 36 15 0
-50 37 13 0
-49 29 16 0
-49 31 16 0
-49 32 15 0
-49 33 15 0
-49 34 15 0
-49 35 15 0
-49 36 13 0
-48 29 16 0
-48 31 15 0
-48 32 15 0
-48 33 15 0
-48 34 15 0
-48 35 13 0
-47 29 15 0
-47 31 15 0
-47 32 15 0
-47 33 15 0
-47 34 13 0
-46 29 15 0
-46 31 15 0
-46 32 15 0
-46 33 13 0
-45 29 15 0
-45 31 15 0
-45 32 13 0
-44 29 15 0
-44 31 13 0
-42 29 13 0
42 -31 -13 0
42 -29 -15 0
44 -32 -13 0
44 -31 -15 0
44 -29 -15 0
45 -33 -13 0
45 -32 -15 0
45 -31 -15 0
45 -29 -15 0
46 -34 -13 0
46 -33 -15 0
46 -32 -15 0
46 -31 -15 0
46 -29 -15 0
47 -35 -13 0
47 -34 -15 0
47 -33 -15 0
47 -32 -15 0
47 -31 -15 0
47 -29 -16 0
48 -36 -13 0
48 -35 -15 0
48 -34 -15 0
48 -33 -15 0
48 -32 -15 0
48 -31 -16 0
48 -29 -16 0
49 -37 -13 0
49 -36 -15 0
49 -35 -15 0
49 -34 -15 0
49 -33 -15 0
49 -32 -16 0
49 -31 -16 0
49 -29 -16 0
50 -38 -13 0
50 -37 -15 0
50 -36 -15 0
50 -35 -15 0
50 -34 -15 0
50 -33 -16 0
50 -32 -16 0
50 -31 -16 0
50 -29 -16 0
51 -39 -13 0
51 -38 -15 0
51 -37 -15 0
51 -36 -15 0
51 -35 -15 0
51 -34 -16 0
51 -33 -16 0
51 -32 -16 0
51 -31 -16 0
51 -29 -17 0
52 -40 -13 0
52 -39 -15 0
52 -38 -15 0
52 -37 -15 0
52 -36 -15 0
52 -35 -16 0
52 -34 -16 0
52 -33 -16 0
52 -32 -16 0
52 -31 -17 0
52 -29 -17 0
53 -41 -13 0
53 -40 -15 0
53 -39 -15 0
53 -38 -15 0
53 -37 -15 0
53 -36 -16 0
53 -35 -16 0
53 -34 -16 0
53 -33 -16 0
53 -32 -17 0
53 -31 -17 0
53 -29 -17 0
54 -30 -13 0
54 -41 -15 0
54 -40 -15 0
54 -39 -15 0
54 -38 -15 0
54 -37 -16 0
54 -36 -16 0
54 -35 -16 0
54 -34 -16 0
54 -33 -17 0
54 -32 -17 0
54 -31 -17 0
54 -29 -17 0
55 -30 -15 0
55 -41 -15 0
55 -40 -15 0
55 -39 -15 0
55 -38 -16 0
55 -37 -16 0
55 -36 -16 0
55 -35 -16 0
55 -34 -17 0
55 -33 -17 0
55 -32 -17 0
55 -31 -17 0
55 -29 -18 0
56 -30 -15 0
56 -41 -15 0
56 -40 -15 0
56 -39 -16 0
56 -38 -16 0
56 -37 -16 0
56 -36 -16 0
56 -35 -17 0
56 -34 -17 0
56 -33 -17 0
56 -32 -17 0
56 -31 -18 0
56 -29 -18 0
57 -30 -15 0
57 -41 -15 0
57 -40 -16 0
57 -39 -16 0
57 -38 -16 0
57 -37 -16 0
57 -36 -17 0
57 -35 -17 0
57 -34 -17 0
57 -33 -17 0
57 -32 -18 0
57 -31 -18 0
57 -29 -18 0
58 -30 -15 0
58 -41 -16 0
58 -40 -16 0
58 -39 -16 0
58 -38 -16 0
58 -37 -17 0
58 -36 -17 0
58 -35 -17 0
58 -34 -17 0
58 -33 -18 0
58 -32 -18 0
58 -31 -18 0
58 -29 -18 0
59 -30 -16 0
59 -41 -16 0
59 -40 -16 0
59 -39 -16 0
59 -38 -17 0
59 -37 -17 0
59 -36 -17 0
59 -35 -17 0
59 -34 -18 0
59 -33 -18 0
59 -32 -18 0
59 -31 -18 0
59 -29 -19 0
60 -30 -16 0
60 -41 -16 0
60 -40 -16 0
60 -39 -17 0
60 -38 -17 0
60 -37 -17 0
60 -36 -17 0
60 -35 -18 0
60 -34 -18 0
60 -33 -18 0
60 -32 -18 0
60 -31 -19 0
60 -29 -19 0
61 -30 -16 0
61 -41 -16 0
61 -40 -17 0
61 -39 -17 0
61 -38 -17 0
61 -37 -17 0
61 -36 -18 0
61 -35 -18 0
61 -34 -18 0
61 -33 -18 0
61 -32 -19 0
61 -31 -19 0
61 -29 -19 0
62 -30 -16 0
62 -41 -17 0
62 -40 -17 0
62 -39 -17 0
62 -38 -17 0
62 -37 -18 0
62 -36 -18 0
62 -35 -18 0
62 -34 -18 0
62 -33 -19 0
62 -32 -19 0
62 -31 -19 0
62 -29 -19 0
63 -30 -17 0
63 -41 -17 0
63 -40 -17 0
63 -39 -17 0
63 -38 -18 0
63 -37 -18 0
63 -36 -18 0
63 -35 -18 0
63 -34 -19 0
63 -33 -19 0
63 -32 -19 0
63 -31 -19 0
63 -29 -20 0
64 -30 -17 0
64 -41 -17 0
64 -40 -17 0
64 -39 -18 0
64 -38 -18 0
64 -37 -18 0
64 -36 -18 0
64 -35 -19 0
64 -34 -19 0
64 -33 -19 0
64 -32 -19 0
64 -31 -20 0
64 -29 -20 0
65 -30 -17 0
65 -41 -17 0
65 -40 -18 0
65 -39 -18 0
65 -38 -18 0
65 -37 -18 0
65 -36 -19 0
65 -35 -19 0
65 -34 -19 0
65 -33 -19 0
65 -32 -20 0
65 -31 -20 0
65 -29 -20 0
66 -30 -17 0
66 -41 -18 0
66 -40 -18 0
66 -39 -18 0
66 -38 -18 0
66 -37 -19 0
66 -36 -19 0
66 -35 -19 0
66 -34 -19 0
66 -33 -20 0
66 -32 -20 0
66 -31 -20 0
66 -29 -20 0
67 -30 -18 0
67 -41 -18 0
67 -40 -18 0
67 -39 -18 0
67 -38 -19 0
67 -37 -19 0
67 -36 -19 0
67 -35 -19 0
67 -34 -20 0
67 -33 -20 0
67 -32 -20 0
67 -31 -20 0
67 -29 -21 0
68 -30 -18 0
68 -41 -18 0
68 -40 -18 0
68 -39 -19 0
68 -38 -19 0
68 -37 -19 0
68 -36 -19 0
68 -35 -20 0
68 -34 -20 0
68 -33 -20 0
68 -32 -20 0
68 -31 -21 0
68 -29 -21 0
69 -30 -18 0
69 -41 -18 0
69 -40 -19 0
69 -39 -19 0
69 -38 -19 0
69 -37 -19 0
69 -36 -20 0
69 -35 -20 0
69 -34 -20 0
69 -33 -20 0
69 -32 -21 0
69 -31 -21 0
69 -29 -21 0
70 -30 -18 0
70 -41 -19 0
70 -40 -19 0
70 -39 -19 0
70 -38 -19 0
70 -37 -20 0
70 -36 -20 0
70 -35 -20 0
70 -34 -20 0
70 -33 -21 0
70 -32 -21 0
70 -31 -21 0
70 -29 -21 0
71 -30 -19 0
71 -41 -19 0
71 -40 -19 0
71 -39 -19 0
71 -38 -20 0
71 -37 -20 0
71 -36 -20 0
71 -35 -20 0
71 -34 -21 0
71 -33 -21 0
71 -32 -21 0
71 -31 -21 0
71 -29 -14 0
72 -30 -19 0
72 -41 -19 0
72 -40 -19 0
72 -39 -20 0
72 -38 -20 0
72 -37 -20 0
72 -36 -20 0
72 -35 -21 0
72 -34 -21 0
72 -33 -21 0
72 -32 -21 0
72 -31 -14 0
73 -30 -19 0
73 -41 -19 0
73 -40 -20 0
73 -39 -20 0
73 -38 -20 0
73 -37 -20 0
73 -36 -21 0
73 -35 -21 0
73 -34 -21 0
73 -33 -21 0
73 -32 -14 0
74 -30 -19 0
74 -41 -20 0
74 -40 -20 0
74 -39 -20 0
74 -38 -20 0
74 -37 -21 0
74 -36 -21 0
74 -35 -21 0
74 -34 -21 0
74 -33 -14 0
75 -30 -20 0
75 -41 -20 0
75 -40 -20 0
75 -39 -20 0
75 -38 -21 0
75 -37 -21 0
75 -36 -21 0
75 -35 -21 0
75 -34 -14 0
76 -30 -20 0
76 -41 -20 0
76 -40 -20 0
76 -39 -21 0
76 -38 -21 0
76 -37 -21 0
76 -36 -21 0
76 -35 -14 0
77 -30 -20 0
77 -41 -20 0
77 -40 -21 0
77 -39 -21 0
77 -38 -21 0
77 -37 -21 0
77 -36 -14 0
78 -30 -20 0
78 -41 -21 0
78 -40 -21 0
78 -39 -21 0
78 -38 -21 0
78 -37 -14 0
79 -30 -21 0
79 -41 -21 0
79 -40 -21 0
79 -39 -21 0
79 -38 -14 0
80 -30 -21 0
80 -41 -21 0
80 -40 -21 0
80 -39 -14 0
81 -30 -21 0
81 -41 -21 0
81 -40 -14 0
82 -30 -21 0
82 -41 -14 0
43 -30 -14 0
-83 0
84 0
-83 85 0
-85 86 0
-86 87 0
-87 88 0
-88 89 0
-89 90 0
-90 91 0
-91 92 0
-92 93 0
-93 94 0
-94 95 0
-95 96 0
-96 97 0
-97 98 0
-98 99 0
-99 100 0
-100 101 0
-101 102 0
-102 103 0
-103 104 0
-104 105 0
-105 106 0
-106 107 0
-107 108 0
-108 109 0
-109 110 0
-110 111 0
-111 112 0
-112 113 0
-113 114 0
-114 115 0
-115 116 0
-116 117 0
-117 118 0
-118 119 0
-119 120 0
-120 121 0
-121 122 0
-122 123 0
-123 124 0
-124 125 0
-125 126 0
-126 127 0
-127 128 0
-128 129 0
-129 130 0
-130 131 0
-131 132 0
-132 133 0
-133 84 0
-84 82 -22 0
-84 43 -24 0
-133 81 -22 0
-133 82 -24 0
-133 43 -24 0
-132 80 -22 0
-132 81 -24 0
-132 82 -24 0
-132 43 -25 0
-131 79 -22 0
-131 80 -24 0
-131 81 -24 0
-131 82 -25 0
-131 43 -25 0
-130 78 -22 0
-130 79 -24 0
-130 80 -24 0
-130 81 -25 0
-130 82 -25 0
-130 43 -26 0
-129 77 -22 0
-129 78 -24 0
-129 79 -24 0
-129 80 -25 0
-129 81 -25 0
-129 82 -26 0
-129 43 -26 0
-128 76 -22 0
-128 77 -24 0
-128 78 -24 0
-128 79 -25 0
-128 80 -25 0
-128 81 -26 0
-128 82 -26 0
-128 43 -27 0
-127 75 -22 0
-127 76 -24 0
-127 77 -24 0
-127 78 -25 0
-127 79 -25 0
-127 80 -26 0
-127 81 -26 0
-127 82 -27 0
-127 43 -27 0
-126 74 -22 0
-126 75 -24 0
-126 76 -24 0
-126 77 -25 0
-126 78 -25 0
-126 79 -26 0
-126 80 -26 0
-126 81 -27 0
-126 82 -27 0
-126 43 -28 0
-125 73 -22 0
-125 74 -24 0
-125 75 -24 0
-125 76 -25 0
-125 77 -25 0
-125 78 -26 0
-125 79 -26 0
-125 80 -27 0
-125 81 -27 0
-125 82 -28 0
-125 43 -28 0
-124 72 -22 0
-124 73 -24 0
-124 74 -24 0
-124 75 -25 0
-124 76 -25 0
-124 77 -26 0
-124 78 -26 0
-124 79 -27 0
-124 80 -27 0
-124 81 -28 0
-124 82 -28 0
-124 43 -23 0
-123 71 -22 0
-123 72 -24 0
-123 73 -24 0
-123 74 -25 0
-123 75 -25 0
-123 76 -26 0
-123 77 -26 0
-123 78 -27 0
-123 79 -27 0
-123 80 -28 0
-123 81 -28 0
-123 82 -23 0
-122 70 -22 0
-122 71 -24 0
-122 72 -24 0
-122 73 -25 0
-122 74 -25 0
-122 75 -26 0
-122 76 -26 0
-122 77 -27 0
-122 78 -27 0
-122 79 -28 0
-122 80 -28 0
-122 81 -23 0
-121 69 -22 0
-121 70 -24 0
-121 71 -24 0
-121 72 -25 0
-121 73 -25 0
-121 74 -26 0
-121 75 -26 0
-121 76 -27 0
-121 77 -27 0
-121 78 -28 0
-121 79 -28 0
-121 80 -23 0
-120 68 -22 0
-120 69 -24 0
-120 70 -24 0
-120 71 -25 0
-120 72 -25 0
-120 73 -26 0
-120 74 -26 0
-120 75 -27 0
-120 76 -27 0
-120 77 -28 0
-120 78 -28 0
-120 79 -23 0
-119 67 -22 0
-119 68 -24 0
-119 69 -24 0
-119 70 -25 0
-119 71 -25 0
-119 72 -26 0
-119 73 -26 0
-119 74 -27 0
-119 75 -27 0
-119 76 -28 0
-119 77 -28 0
-119 78 -23 0
-118 66 -22 0
-118 67 -24 0
-118 68 -24 0
-118 69 -25 0
-118 70 -25 0
-118 71 -26 0
-118 72 -26 0
-118 73 -27 0
-118 74 -27 0
-118 75 -28 0
-118 76 -28 0
-118 77 -23 0
-117 65 -22 0
-117 66 -24 0
-117 67 -24 0
-117 68 -25 0
-117 69 -25 0
-117 70 -26 0
-117 71 -26 0
-117 72 -27 0
-117 73 -27 0
-117 74 -28 0
-117 75 -28 0
-117 76 -23 0
-116 64 -22 0
-116 65 -24 0
-116 66 -24 0
-116 67 -25 0
-116 68 -25 0
-116 69 -26 0
-116 70 -26 0
-116 71 -27 0
-116 72 -27 0
-116 73 -28 0
-116 74 -28 0
-116 75 -23 0
-115 63 -22 0
-115 64 -24 0
-115 65 -24 0
-115 66 -25 0
-115 67 -25 0
-115 68 -26 0
-115 69 -26 0
-115 70 -27 0
-115 71 -27 0
-115 72 -28 0
-115 73 -28 0
-115 74 -23 0
-114 62 -22 0
-114 63 -24 0
-114 64 -24 0
-114 65 -25 0
-114 66 -25 0
-114 67 -26 0
-114 68 -26 0
-114 69 -27 0
-114 70 -27 0
-114 71 -28 0
-114 72 -28 0
-114 73 -23 0
-113 61 -22 0
-113 62 -24 0
-113 63 -24 0
-113 64 -25 0
-113 65 -25 0
-113 66 -26 0
-113 67 -26 0
-113 68 -27 0
-113 69 -27 0
-113 70 -28 0
-113 71 -28 0
-113 72 -23 0
-112 60 -22 0
-112 61 -24 0
-112 62 -24 0
-112 63 -25 0
-112 64 -25 0
-112 65 -26 0
-112 66 -26 0
-112 67 -27 0
-112 68 -27 0
-112 69 -28 0
-112 70 -28 0
-112 71 -23 0
-111 59 -22 0
-111 60 -24 0
-111 61 -24 0
-111 62 -25 0
-111 63 -25 0
-111 64 -26 0
-111 65 -26 0
-111 66 -27 0
-111 67 -27 0
-111 68 -28 0
-111 69 -28 0
-111 70 -23 0
-110 58 -22 0
-110 59 -24 0
-110 60 -24 0
-110 61 -25 0
-110 62 -25 0
-110 63 -26 0
-110 64 -26 0
-110 65 -27 0
-110 66 -27 0
-110 67 -28 0
-110 68 -28 0
-110 69 -23 0
-109 57 -22 0
-109 58 -24 0
-109 59 -24 0
-109 60 -25 0
-109 61 -25 0
-109 62 -26 0
-109 63 -26 0
-109 64 -27 0
-109 65 -27 0
-109 66 -28 0
-109 67 -28 0
-109 68 -23 0
-108 56 -22 0
-108 57 -24 0
-108 58 -24 0
-108 59 -25 0
-108 60 -25 0
-108 61 -26 0
-108 62 -26 0
-108 63 -27 0
-108 64 -27 0
-108 65 -28 0
-108 66 -28 0
-108 67 -23 0
-107 55 -22 0
-107 56 -24 0
-107 57 -24 0
-107 58 -25 0
-107 59 -25 0
-107 60 -26 0
-107 61 -26 0
-107 62 -27 0
-107 63 -27 0
-107 64 -28 0
-107 65 -28 0
-107 66 -23 0
-106 54 -22 0
-106 55 -24 0
-106 56 -24 0
-106 57 -25 0
-106 58 -25 0
-106 59 -26 0
-106 60 -26 0
-106 61 -27 0
-106 62 -27 0
-106 63 -28 0
-106 64 -28 0
-106 65 -23 0
-105 53 -22 0
-105 54 -24 0
-105 55 -24 0
-105 56 -25 0
-105 57 -25 0
-105 58 -26 0
-105 59 -26 0
-105 60 -27 0
-105 61 -27 0
-105 62 -28 0
-105 63 -28 0
-105 64 -23 0
-104 52 -22 0
-104 53 -24 0
-104 54 -24 0
-104 55 -25 0
-104 56 -25 0
-104 57 -26 0
-104 58 -26 0
-104 59 -27 0
-104 60 -27 0
-104 61 -28 0
-104 62 -28 0
-104 63 -23 0
-103 51 -22 0
-103 52 -24 0
-103 53 -24 0
-103 54 -25 0
-103 55 -25 0
-103 56 -26 0
-103 57 -26 0
-103 58 -27 0
-103 59 -27 0
-103 60 -28 0
-103 61 -28 0
-103 62 -23 0
-102 50 -22 0
-102 51 -24 0
-102 52 -24 0
-102 53 -25 0
-102 54 -25 0
-102 55 -26 0
-102 56 -26 0
-102 57 -27 0
-102 58 -27 0
-102 59 -28 0
-102 60 -28 0
-102 61 -23 0
-101 49 -22 0
-101 50 -24 0
-101 51 -24 0
-101 52 -25 0
-101 53 -25 0
-101 54 -26 0
-101 55 -26 0
-101 56 -27 0
-101 57 -27 0
-101 58 -28 0
-101 59 -28 0
-101 60 -23 0
-100 48 -22 0
-100 49 -24 0
-100 50 -24 0
-100 51 -25 0
-100 52 -25 0
-100 53 -26 0
-100 54 -26 0
-100 55 -27 0
-100 56 -27 0
-100 57 -28 0
-100 58 -28 0
-100 59 -23 0
-99 47 -22 0
-99 48 -24 0
-99 49 -24 0
-99 50 -25 0
-99 51 -25 0
-99 52 -26 0
-99 53 -26 0
-99 54 -27 0
-99 55 -27 0
-99 56 -28 0
-99 57 -28 0
-99 58 -23 0
-98 46 -22 0
-98 47 -24 0
-98 48 -24 0
-98 49 -25 0
-98 50 -25 0
-98 51 -26 0
-98 52 -26 0
-98 53 -27 0
-98 54 -27 0
-98 55 -28 0
-98 56 -28 0
-98 57 -23 0
-97 45 -22 0
-97 46 -24 0
-97 47 -24 0
-97 48 -25 0
-97 49 -25 0
-97 50 -26 0
-97 51 -26 0
-97 52 -27 0
-97 53 -27 0
-97 54 -28 0
-97 55 -28 0
-97 56 -23 0
-96 44 -22 0
-96 45 -24 0
-96 46 -24 0
-96 47 -25 0
-96 48 -25 0
-96 49 -26 0
-96 50 -26 0
-96 51 -27 0
-96 52 -27 0
-96 53 -28 0
-96 54 -28 0
-96 55 -23 0
-95 42 -22 0
-95 44 -24 0
-95 45 -24 0
-95 46 -25 0
-95 47 -25 0
-95 48 -26 0
-95 49 -26 0
-95 50 -27 0
-95 51 -27 0
-95 52 -28 0
-95 53 -28 0
-95 54 -23 0
-94 42 -24 0
-94 44 -24 0
-94 45 -25 0
-94 46 -25 0
-94 47 -26 0
-94 48 -26 0
-94 49 -27 0
-94 50 -27 0
-94 51 -28 0
-94 52 -28 0
-94 53 -23 0
-93 42 -24 0
-93 44 -25 0
-93 45 -25 0
-93 46 -26 0
-93 47 -26 0
-93 48 -27 0
-93 49 -27 0
-93 50 -28 0
-93 51 -28 0
-93 52 -23 0
-92 42 -25 0
-92 44 -25 0
-92 45 -26 0
-92 46 -26 0
-92 47 -27 0
-92 48 -27 0
-92 49 -28 0
-92 50 -28 0
-92 51 -23 0
-91 42 -25 0
-91 44 -26 0
-91 45 -26 0
-91 46 -27 0
-91 47 -27 0
-91 48 -28 0
-91 49 -28 0
-91 50 -23 0
-90 42 -26 0
-90 44 -26 0
-90 45 -27 0
-90 46 -27 0
-90 47 -28 0
-90 48 -28 0
-90 49 -23 0
-89 42 -26 0
-89 44 -27 0
-89 45 -27 0
-89 46 -28 0
-89 47 -28 0
-89 48 -23 0
-88 42 -27 0
-88 44 -27 0
-88 45 -28 0
-88 46 -28 0
-88 47 -23 0
-87 42 -27 0
-87 44 -28 0
-87 45 -28 0
-87 46 -23 0
-86 42 -28 0
-86 44 -28 0
-86 45 -23 0
-85 42 -28 0
-85 44 -23 0
-83 42 -23 0
83 -44 23 0
83 -42 28 0
85 -45 23 0
85 -44 28 0
85 -42 28 0
86 -46 23 0
86 -45 28 0
86 -44 28 0
86 -42 27 0
87 -47 23 0
87 -46 28 0
87 -45 28 0
87 -44 27 0
87 -42 27 0
88 -48 23 0
88 -47 28 0
88 -46 28 0
88 -45 27 0
88 -44 27 0
88 -42 26 0
89 -49 23 0
89 -48 28 0
89 -47 28 0
89 -46 27 0
89 -45 27 0
89 -44 26 0
89 -42 26 0
90 -50 23 0
90 -49 28 0
90 -48 28 0
90 -47 27 0
90 -46 27 0
90 -45 26 0
90 -44 26 0
90 -42 25 0
91 -51 23 0
91 -50 28 0
91 -49 28 0
91 -48 27 0
91 -47 27 0
91 -46 26 0
91 -45 26 0
91 -44 25 0
91 -42 25 0
92 -52 23 0
92 -51 28 0
92 -50 28 0
92 -49 27 0
92 -48 27 0
92 -47 26 0
92 -46 26 0
92 -45 25 0
92 -44 25 0
92 -42 24 0
93 -53 23 0
93 -52 28 0
93 -51 28 0
93 -50 27 0
93 -49 27 0
93 -48 26 0
93 -47 26 0
93 -46 25 0
93 -45 25 0
93 -44 24 0
93 -42 24 0
94 -54 23 0
94 -53 28 0
94 -52 28 0
94 -51 27 0
94 -50 27 0
94 -49 26 0
94 -48 26 0
94 -47 25 0
94 -46 25 0
94 -45 24 0
94 -44 24 0
94 -42 22 0
95 -55 23 0
95 -54 28 0
95 -53 28 0
95 -52 27 0
95 -51 27 0
95 -50 26 0
95 -49 26 0
95 -48 25 0
95 -47 25 0
95 -46 24 0
95 -45 24 0
95 -44 22 0
96 -56 23 0
96 -55 28 0
96 -54 28 0
96 -53 27 0
96 -52 27 0
96 -51 26 0
96 -50 26 0
96 -49 25 0
96 -48 25 0
96 -47 24 0
96 -46 24 0
96 -45 22 0
97 -57 23 0
97 -56 28 0
97 -55 28 0
97 -54 27 0
97 -53 27 0
97 -52 26 0
97 -51 26 0
97 -50 25 0
97 -49 25 0
97 -48 24 0
97 -47 24 0
97 -46 22 0
98 -58 23 0
98 -57 28 0
98 -56 28 0
98 -55 27 0
98 -54 27 0
98 -53 26 0
98 -52 26 0
98 -51 25 0
98 -50 25 0
98 -49 24 0
98 -48 24 0
98 -47 22 0
99 -59 23 0
99 -58 28 0
99 -57 28 0
99 -56 27 0
99 -55 27 0
99 -54 26 0
99 -53 26 0
99 -52 25 0
99 -51 25 0
99 -50 24 0
99 -49 24 0
99 -48 22 0
100 -60 23 0
100 -59 28 0
100 -58 28 0
100 -57 27 0
100 -56 27 0
100 -55 26 0
100 -54 26 0
100 -53 25 0
100 -52 25 0
100 -51 24 0
100 -50 24 0
100 -49 22 0
101 -61 23 0
101 -60 28 0
101 -59 28 0
101 -58 27 0
101 -57 27 0
101 -56 26 0
101 -55 26 0
101 -54 25 0
101 -53 25 0
101 -52 24 0
101 -51 24 0
101 -50 22 0
102 -62 23 0
102 -61 28 0
102 -60 28 0
102 -59 27 0
102 -58 27 0
102 -57 26 0
102 -56 26 0
102 -55 25 0
102 -54 25 0
102 -53 24 0
102 -52 24 0
102 -51 22 0
103 -63 23 0
103 -62 28 0
103 -61 28 0
103 -60 27 0
103 -59 27 0
103 -58 26 0
103 -57 26 0
103 -56 25 0
103 -55 25 0
103 -54 24 0
103 -53 24 0
103 -52 22 0
104 -64 23 0
104 -63 28 0
104 -62 28 0
104 -61 27 0
104 -60 27 0
104 -59 26 0
104 -58 26 0
104 -57 25 0
104 -56 25 0
104 -55 24 0
104 -54 24 0
104 -53 22 0
105 -65 23 0
105 -64 28 0
105 -63 28 0
105 -62 27 0
105 -61 27 0
105 -60 26 0
105 -59 26 0
105 -58 25 0
105 -57 25 0
105 -56 24 0
105 -55 24 0
105 -54 22 0
106 -66 23 0
106 -65 28 0
106 -64 28 0
106 -63 27 0
106 -62 27 0
106 -61 26 0
106 -60 26 0
106 -59 25 0
106 -58 25 0
106 -57 24 0
106 -56 24 0
106 -55 22 0
107 -67 23 0
107 -66 28 0
107 -65 28 0
107 -64 27 0
107 -63 27 0
107 -62 26 0
107 -61 26 0
107 -60 25 0
107 -59 25 0
107 -58 24 0
107 -57 24 0
107 -56 22 0
108 -68 23 0
108 -67 28 0
108 -66 28 0
108 -65 27 0
108 -64 27 0
108 -63 26 0
108 -62 26 0
108 -61 25 0
108 -60 25 0
108 -59 24 0
108 -58 24 0
108 -57 22 0
109 -69 23 0
109 -68 28 0
109 -67 28 0
109 -66 27 0
109 -65 27 0
109 -64 26 0
109 -63 26 0
109 -62 25 0
109 -61 25 0
109 -60 24 0
109 -59 24 0
109 -58 22 0
110 -70 23 0
110 -69 28 0
110 -68 28 0
110 -67 27 0
110 -66 27 0
110 -65 26 0
110 -64 26 0
110 -63 25 0
110 -62 25 0
110 -61 24 0
110 -60 24 0
110 -59 22 0
111 -71 23 0
111 -70 28 0
111 -69 28 0
111 -68 27 0
111 -67 27 0
111 -66 26 0
111 -65 26 0
111 -64 25 0
111 -63 25 0
111 -62 24 0
111 -61 24 0
111 -60 22 0
112 -72 23 0
112 -71 28 0
112 -70 28 0
112 -69 27 0
112 -68 27 0
112 -67 26 0
112 -66 26 0
112 -65 25 0
112 -64 25 0
112 -63 24 0
112 -62 24 0
112 -61 22 0
113 -73 23 0
113 -72 28 0
113 -71 28 0
113 -70 27 0
113 -69 27 0
113 -68 26 0
113 -67 26 0
113 -66 25 0
113 -65 25 0
113 -64 24 0
113 -63 24 0
113 -62 22 0
114 -74 23 0
114 -73 28 0
114 -72 28 0
114 -71 27 0
114 -70 27 0
114 -69 26 0
114 -68 26 0
114 -67 25 0
114 -66 25 0
114 -65 24 0
114 -64 24 0
114 -63 22 0
115 -75 23 0
115 -74 28 0
115 -73 28 0
115 -72 27 0
115 -71 27 0
115 -70 26 0
115 -69 26 0
115 -68 25 0
115 -67 25 0
115 -66 24 0
115 -65 24 0
115 -64 22 0
116 -76 23 0
116 -75 28 0
116 -74 28 0
116 -73 27 0
116 -72 27 0
116 -71 26 0
116 -70 26 0
116 -69 25 0
116 -68 25 0
116 -67 24 0
116 -66 24 0
116 -65 22 0
117 -77 23 0
117 -76 28 0
117 -75 28 0
117 -74 27 0
117 -73 27 0
117 -72 26 0
117 -71 26 0
117 -70 25 0
117 -69 25 0
117 -68 24 0
117 -67 24 0
117 -66 22 0
118 -78 23 0
118 -77 28 0
118 -76 28 0
118 -75 27 0
118 -74 27 0
118 -73 26 0
118 -72 26 0
118 -71 25 0
118 -70 25 0
118 -69 24 0
118 -68 24 0
118 -67 22 0
119 -79 23 0
119 -78 28 0
119 -77 28 0
119 -76 27 0
119 -75 27 0
119 -74 26 0
119 -73 26 0
119 -72 25 0
119 -71 25 0
119 -70 24 0
119 -69 24 0
119 -68 22 0
120 -80 23 0
120 -79 28 0
120 -78 28 0
120 -77 27 0
120 -76 27 0
120 -75 26 0
120 -74 26 0
120 -73 25 0
120 -72 25 0
120 -71 24 0
120 -70 24 0
120 -69 22 0
121 -81 23 0
121 -80 28 0
121 -79 28 0
121 -78 27 0
121 -77 27 0
121 -76 26 0
121 -75 26 0
121 -74 25 0
121 -73 25 0
121 -72 24 0
121 -71 24 0
121 -70 22 0
122 -82 23 0
122 -81 28 0
122 -80 28 0
122 -79 27 0
122 -78 27 0
122 -77 26 0
122 -76 26 0
122 -75 25 0
122 -74 25 0
122 -73 24 0
122 -72 24 0
122 -71 22 0
123 -43 23 0
123 -82 28 0
123 -81 28 0
123 -80 27 0
123 -79 27 0
123 -78 26 0
123 -77 26 0
123 -76 25 0
123 -75 25 0
123 -74 24 0
123 -73 24 0
123 -72 22 0
124 -43 28 0
124 -82 28 0
124 -81 27 0
124 -80 27 0
124 -79 26 0
124 -78 26 0
124 -77 25 0
124 -76 25 0
124 -75 24 0
124 -74 24 0
124 -73 22 0
125 -43 28 0
125 -82 27 0
125 -81 27 0
125 -80 26 0
125 -79 26 0
125 -78 25 0
125 -77 25 0
125 -76 24 0
125 -75 24 0
125 -74 22 0
126 -43 27 0
126 -82 27 0
126 -81 26 0
126 -80 26 0
126 -79 25 0
126 -78 25 0
126 -77 24 0
126 -76 24 0
126 -75 22 0
127 -43 27 0
127 -82 26 0
127 -81 26 0
127 -80 25 0
127 -79 25 0
127 -78 24 0
127 -77 24 0
127 -76 22 0
128 -43 26 0
128 -82 26 0
128 -81 25 0
128 -80 25 0
128 -79 24 0
128 -78 24 0
128 -77 22 0
129 -43 26 0
129 -82 25 0
129 -81 25 0
129 -80 24 0
129 -79 24 0
129 -78 22 0
130 -43 25 0
130 -82 25 0
130 -81 24 0
130 -80 24 0
130 -79 22 0
131 -43 25 0
131 -82 24 0
131 -81 24 0
131 -80 22 0
132 -43 24 0
132 -82 24 0
132 -81 22 0
133 -43 24 0
133 -82 22 0
84 -43 22 0
85 0
1 -11 0
3 -12 0
4 -9 0
1 -13 0
3 -15 0
4 -16 0
5 -17 0
6 -18 0
7 -19 0
2 -20 0
134 135 0
1 -26 -134 0
3 -27 -134 0
4 -28 -134 0
5 -23 -134 0
24 -1 -135 0
25 -3 -135 0
26 -4 -135 0
27 -5 -135 0
28 -6 -135 0
23 -7 -135 0
12 -13 0
9 -15 0
13 -12 0
15 -9 0
12 -13 0
9 -15 0
8 -22 0
10 -24 0
11 -25 0
12 -26 0
9 -27 0
13 -12 -136 0
15 -9 -136 0
22 -8 -137 0
24 -10 -137 0
25 -11 -137 0
26 -12 -137 0
27 -9 -137 0
136 137 0
3 -13 0
4 -15 0
5 -16 0
6 -17 0
7 -18 0
2 -19 0
12 -13 0
9 -15 0
13 -3 -138 0
15 -4 -138 0
16 -5 -138 0
17 -6 -138 0
18 -7 -138 0
19 -2 -138 0
13 -12 -139 0
15 -9 -139 0
138 139 0
